; QF_LIA benchmark: system_17
(set-logic QF_LIA)
(declare-fun v0 () Int)
(declare-fun v1 () Int)
(declare-fun v2 () Int)
(declare-fun v3 () Int)
(assert (= (+ (* -5 v0) (* -5 v1) (* -2 v3)) -34))
(assert (>= (+ (* -2 v0) (* -4 v1) (* 3 v2) (* -2 v3)) 25))
(assert (<= (+ (* -2 v0) (* -3 v2) (* 4 v3)) -50))
(assert (>= (+ (* -3 v0) (* -3 v1) (* 3 v2) (* -1 v3)) -28))
(assert (>= (+ (* 5 v0) (* -5 v1) (* -3 v2) (* -5 v3)) -5))
(assert (>= (+ (* 4 v0) (* -5 v2) (* -3 v3)) -17))
(assert (>= (+ (* -3 v0) (* 1 v1) (* 3 v2) (* -4 v3)) 45))
(assert (>= (+ (* 2 v0) (* 2 v1) (* 3 v3)) 25))
(check-sat)
(exit)
